param set_len = 12;
param target_sum = 3346281085;
param values := [1] 479075492 [2] 50549729 [3] 580989775 [4] 600971404 [5] 1025431884 [6] 499901102 [7] 888802191 [8] 586550560 [9] 779084639 [10] 425588781 [11] 559553180 [12] 641503864 ;
